Running HiGHS 1.4.0 [date: 1970-01-01, git hash: bcf6c0b22]
Copyright (c) 2022 ERGO-Code under MIT licence terms
LP   1GPLS5O_model has 108 rows; 92 cols; 287 nonzeros
Presolving model
38 rows, 25 cols, 99 nonzeros
9 rows, 13 cols, 26 nonzeros
9 rows, 11 cols, 24 nonzeros
Presolve : Reductions: rows 9(-99); columns 11(-81); elements 24(-263)
Solving the presolved LP
Using EKK dual simplex solver - serial
  Iteration        Objective     Infeasibilities num(sum)
          0    -5.9999819666e+00 Ph1: 7(6000); Du: 2(5.99998) 0s
          7    -9.3184118110e+02 Pr: 0(0) 0s
Solving the original LP from the solution after postsolve
Model   status      : Optimal
Simplex   iterations: 7
Objective value     :  9.3184118110e+02
HiGHS run time      :          0.00
